NAME : X-n204-k19
COMMENT : "Generated by Uchoa, Pecin, Pessoa, Poggi, Subramanian, and Vidal (2013)"
TYPE : CVRP
DIMENSION : 204
EDGE_WEIGHT_TYPE : EUC_2D
EDGE_WEIGHT_FORMAT : 
CAPACITY : 836
DISTANCE : 1.79769e+308
SERVICE_TIME : 0
NODE_COORD_SECTION
1 500 500
2 221 542
3 320 456
4 576 827
5 679 994
6 371 461
7 961 844
8 986 379
9 175 540
10 126 517
11 329 626
12 477 890
13 191 356
14 584 917
15 308 653
16 0 7
17 273 302
18 672 381
19 235 415
20 583 149
21 672 124
22 644 646
23 400 544
24 832 999
25 842 964
26 582 965
27 544 311
28 429 2
29 939 849
30 898 605
31 363 130
32 639 874
33 323 201
34 829 350
35 7 53
36 801 92
37 57 330
38 943 0
39 579 275
40 833 402
41 408 940
42 635 871
43 631 630
44 733 313
45 344 619
46 628 291
47 674 92
48 74 602
49 38 354
50 473 107
51 668 279
52 510 811
53 366 16
54 49 182
55 528 946
56 271 745
57 405 872
58 65 893
59 622 488
60 668 978
61 939 73
62 556 632
63 270 446
64 586 348
65 951 167
66 385 308
67 247 997
68 992 460
69 128 590
70 746 847
71 279 459
72 428 183
73 364 167
74 656 687
75 547 792
76 517 152
77 252 618
78 464 284
79 184 96
80 457 269
81 590 47
82 348 609
83 777 112
84 528 198
85 877 457
86 812 650
87 864 723
88 584 875
89 817 233
90 186 909
91 439 447
92 560 994
93 818 658
94 134 903
95 447 951
96 969 519
97 488 401
98 142 666
99 287 534
100 399 181
101 141 22
102 29 248
103 313 643
104 20 974
105 294 475
106 439 214
107 327 361
108 79 657
109 110 653
110 332 440
111 242 943
112 96 492
113 62 541
114 478 199
115 267 486
116 184 686
117 119 370
118 342 587
119 316 552
120 90 370
121 417 225
122 111 575
123 458 221
124 321 337
125 287 454
126 364 560
127 121 609
128 215 488
129 351 232
130 84 585
131 14 718
132 344 337
133 233 472
134 216 497
135 133 584
136 188 327
137 175 352
138 281 702
139 247 645
140 215 837
141 424 677
142 438 666
143 454 547
144 354 242
145 96 387
146 462 532
147 25 980
148 343 658
149 127 368
150 100 613
151 245 363
152 356 488
153 259 410
154 480 270
155 196 492
156 303 336
157 243 888
158 453 226
159 32 993
160 287 528
161 492 238
162 54 698
163 442 195
164 17 930
165 285 277
166 75 932
167 167 560
168 368 360
169 155 710
170 328 277
171 355 399
172 53 641
173 236 522
174 421 346
175 308 118
176 82 739
177 345 467
178 408 363
179 101 658
180 419 188
181 36 952
182 250 337
183 232 388
184 498 308
185 18 945
186 362 702
187 429 256
188 105 507
189 245 521
190 576 280
191 269 485
192 257 647
193 106 618
194 269 505
195 423 470
196 206 467
197 126 669
198 228 795
199 241 305
200 137 433
201 210 392
202 371 627
203 219 344
204 96 427
PICKUP_AND_DELIVERY_SECTION
1 0 0 0 0 0 0
2 0 0 0 0 0 61
3 0 0 0 0 0 96
4 0 0 0 0 0 52
5 0 0 0 0 0 58
6 0 0 0 0 0 81
7 0 0 0 0 0 76
8 0 0 0 0 0 51
9 0 0 0 0 0 98
10 0 0 0 0 0 65
11 0 0 0 0 84 0
12 0 0 0 0 0 63
13 0 0 0 0 0 79
14 0 0 0 0 0 89
15 0 0 0 0 0 70
16 0 0 0 0 0 93
17 0 0 0 0 0 84
18 0 0 0 0 0 100
19 0 0 0 0 0 70
20 0 0 0 0 0 52
21 0 0 0 0 86 0
22 0 0 0 0 0 69
23 0 0 0 0 0 50
24 0 0 0 0 0 59
25 0 0 0 0 0 79
26 0 0 0 0 0 53
27 0 0 0 0 0 66
28 0 0 0 0 0 65
29 0 0 0 0 0 70
30 0 0 0 0 0 74
31 0 0 0 0 86 0
32 0 0 0 0 0 77
33 0 0 0 0 0 83
34 0 0 0 0 0 50
35 0 0 0 0 0 76
36 0 0 0 0 0 62
37 0 0 0 0 0 73
38 0 0 0 0 0 54
39 0 0 0 0 0 100
40 0 0 0 0 0 99
41 0 0 0 0 59 0
42 0 0 0 0 0 73
43 0 0 0 0 0 74
44 0 0 0 0 0 97
45 0 0 0 0 0 63
46 0 0 0 0 0 83
47 0 0 0 0 0 97
48 0 0 0 0 0 81
49 0 0 0 0 0 61
50 0 0 0 0 0 91
51 0 0 0 0 78 0
52 0 0 0 0 0 87
53 0 0 0 0 0 56
54 0 0 0 0 0 81
55 0 0 0 0 0 91
56 0 0 0 0 0 62
57 0 0 0 0 0 53
58 0 0 0 0 0 82
59 0 0 0 0 0 77
60 0 0 0 0 0 94
61 0 0 0 0 99 0
62 0 0 0 0 0 92
63 0 0 0 0 0 76
64 0 0 0 0 0 83
65 0 0 0 0 0 89
66 0 0 0 0 0 61
67 0 0 0 0 0 53
68 0 0 0 0 0 94
69 0 0 0 0 0 84
70 0 0 0 0 0 55
71 0 0 0 0 54 0
72 0 0 0 0 0 61
73 0 0 0 0 0 86
74 0 0 0 0 0 53
75 0 0 0 0 0 60
76 0 0 0 0 0 55
77 0 0 0 0 0 82
78 0 0 0 0 0 86
79 0 0 0 0 0 60
80 0 0 0 0 0 71
81 0 0 0 0 98 0
82 0 0 0 0 0 67
83 0 0 0 0 0 93
84 0 0 0 0 0 63
85 0 0 0 0 0 64
86 0 0 0 0 0 96
87 0 0 0 0 0 85
88 0 0 0 0 0 64
89 0 0 0 0 0 95
90 0 0 0 0 0 71
91 0 0 0 0 69 0
92 0 0 0 0 0 94
93 0 0 0 0 0 79
94 0 0 0 0 0 68
95 0 0 0 0 0 50
96 0 0 0 0 0 97
97 0 0 0 0 0 83
98 0 0 0 0 0 72
99 0 0 0 0 0 99
100 0 0 0 0 0 88
101 0 0 0 0 72 0
102 0 0 0 0 0 84
103 0 0 0 0 0 88
104 0 0 0 0 0 54
105 0 0 0 0 0 83
106 0 0 0 0 0 83
107 0 0 0 0 0 62
108 0 0 0 0 0 80
109 0 0 0 0 0 68
110 0 0 0 0 0 99
111 0 0 0 0 57 0
112 0 0 0 0 0 75
113 0 0 0 0 0 51
114 0 0 0 0 0 54
115 0 0 0 0 0 85
116 0 0 0 0 0 71
117 0 0 0 0 0 92
118 0 0 0 0 0 64
119 0 0 0 0 0 80
120 0 0 0 0 0 78
121 0 0 0 0 61 0
122 0 0 0 0 0 98
123 0 0 0 0 0 61
124 0 0 0 0 0 52
125 0 0 0 0 0 92
126 0 0 0 0 0 55
127 0 0 0 0 0 55
128 0 0 0 0 0 83
129 0 0 0 0 0 73
130 0 0 0 0 0 56
131 0 0 0 0 80 0
132 0 0 0 0 0 82
133 0 0 0 0 0 71
134 0 0 0 0 0 93
135 0 0 0 0 0 93
136 0 0 0 0 0 92
137 0 0 0 0 0 58
138 0 0 0 0 0 88
139 0 0 0 0 0 50
140 0 0 0 0 0 58
141 0 0 0 0 54 0
142 0 0 0 0 0 73
143 0 0 0 0 0 82
144 0 0 0 0 0 59
145 0 0 0 0 0 80
146 0 0 0 0 0 81
147 0 0 0 0 0 74
148 0 0 0 0 0 99
149 0 0 0 0 0 70
150 0 0 0 0 0 89
151 0 0 0 0 69 0
152 0 0 0 0 0 68
153 0 0 0 0 0 61
154 0 0 0 0 0 88
155 0 0 0 0 0 75
156 0 0 0 0 0 60
157 0 0 0 0 0 72
158 0 0 0 0 0 54
159 0 0 0 0 0 86
160 0 0 0 0 0 55
161 0 0 0 0 66 0
162 0 0 0 0 0 94
163 0 0 0 0 0 69
164 0 0 0 0 0 65
165 0 0 0 0 0 63
166 0 0 0 0 0 84
167 0 0 0 0 0 66
168 0 0 0 0 0 89
169 0 0 0 0 0 71
170 0 0 0 0 0 95
171 0 0 0 0 95 0
172 0 0 0 0 0 80
173 0 0 0 0 0 74
174 0 0 0 0 0 61
175 0 0 0 0 0 79
176 0 0 0 0 0 87
177 0 0 0 0 0 90
178 0 0 0 0 0 72
179 0 0 0 0 0 81
180 0 0 0 0 0 86
181 0 0 0 0 85 0
182 0 0 0 0 0 71
183 0 0 0 0 0 100
184 0 0 0 0 0 99
185 0 0 0 0 0 51
186 0 0 0 0 0 68
187 0 0 0 0 0 80
188 0 0 0 0 0 55
189 0 0 0 0 0 52
190 0 0 0 0 0 68
191 0 0 0 0 87 0
192 0 0 0 0 0 79
193 0 0 0 0 0 71
194 0 0 0 0 0 58
195 0 0 0 0 0 87
196 0 0 0 0 0 78
197 0 0 0 0 0 83
198 0 0 0 0 0 57
199 0 0 0 0 0 52
200 0 0 0 0 0 57
201 0 0 0 0 78 0
202 0 0 0 0 0 80
203 0 0 0 0 0 66
204 0 0 0 0 0 84
